nNurses = 105;
nHours = 39;
minHours = 8;
maxHours = 16;
maxConsec = 7;
maxPresence = 24;
demand = [26, 31, 33, 35, 40, 40, 39, 39, 35, 38, 36, 32, 28, 32, 30, 25, 21, 18, 21, 24, 26, 27, 32, 29, 27, 26, 23, 21, 21, 19, 16, 12, 10, 13, 15, 20, 19, 14, 14];
